db/inputs/920238089967427257718786271085154.smt2
(set-logic QF_FP)
(declare-const x0 (_ FloatingPoint 11 53))
(declare-const x1 (_ FloatingPoint 11 53))
(declare-const x2 (_ FloatingPoint 11 53))
(declare-const x3 (_ FloatingPoint 11 53))
(declare-const x4 (_ FloatingPoint 11 53))
(declare-const x5 (_ FloatingPoint 11 53))
(declare-const x6 (_ FloatingPoint 11 53))
(declare-const x7 (_ FloatingPoint 11 53))
(declare-const x8 (_ FloatingPoint 11 53))
(assert (fp.eq (fp.add RNE x4 x3) (fp.mul RNE x8 x8)))
(assert (fp.leq (fp.add RNE x8 x5) (fp.div RNE x6 x4)))
(assert (fp.lt (fp.mul RNE x4 x1) (fp.neg x3)))
(assert (fp.gt (fp.add RNE x5 x4) (fp.sub RNE x7 x1)))
(assert (fp.lt (fp.sub RNE x1 x2) (fp.add RNE x7 x7)))
(assert (fp.gt (fp.div RNE x8 x1) (fp.sub RNE x1 x6)))
(assert (fp.geq (fp.neg x6) (fp.add RNE x2 x0)))
(assert (fp.lt (fp.sub RNE x6 x2) (fp.div RNE x7 x8)))
(assert (fp.gt (fp.div RNE x5 x8) (fp.mul RNE x2 x4)))
(assert (fp.leq (fp.add RNE x0 x3) (fp.mul RNE x4 x0)))
(assert (fp.lt (fp.neg x5) (fp.mul RNE x2 x5)))
(assert (fp.lt (fp.div RNE x6 x1) (fp.mul RNE x1 x0)))
(assert (fp.gt (fp.mul RNE x8 x7) (fp.sub RNE x1 x0)))
(assert (fp.geq (fp.neg x8) (fp.sub RNE x6 x2)))
(assert (fp.lt (fp.add RNE x6 x3) (fp.mul RNE x2 x0)))
(assert (fp.gt (fp.div RNE x1 x5) (fp.div RNE x2 x4)))
(assert (fp.geq (fp.mul RNE x6 x8) (fp.sub RNE x8 x2)))
(assert (fp.gt (fp.mul RNE x3 x8) (fp.add RNE x7 x1)))
(assert (fp.lt (fp.div RNE x8 x0) (fp.div RNE x7 x1)))
(assert (fp.geq (fp.neg x0) (fp.add RNE x6 x5)))
(check-sat)
