db/data/920238089967427257718786271085154.z3.out
-------------------
2500.101329821
